CapLotSizing_PM/src/Instancias/NCLSHT/12i6p2m/NBA08.OUT
 CG ITER, OVMR, OVMRUB =           1   15641.3964844   13426.4003906
 CG ITER, OVMR, OVMRUB =           2   13426.4003906   13426.4003906
 CG ITER, OVMR, OVMRUB =           3   13426.4003906   13426.4003906
 CG ITER, OVMR, OVMRUB =           4   13426.3974609   13426.4003906
 CG ITER, OVMR, OVMRUB =           5   12994.6708984   13426.4003906
 CG ITER, OVMR, OVMRUB =           6   12888.6748047   13426.4003906
 CG ITER, OVMR, OVMRUB =           7   12858.3388672   13426.4003906
 CG ITER, OVMR, OVMRUB =           8   12830.1015625   13426.4003906
 CG ITER, OVMR, OVMRUB =           9   12795.1494141   13426.4003906
 CG ITER, OVMR, OVMRUB =          10   12783.3310547   13426.4003906
 CG ITER, OVMR, OVMRUB =          11   12766.0673828   13417.4033203
 CG ITER, OVMR, OVMRUB =          12   12756.7177734   13417.4033203
 CG ITER, OVMR, OVMRUB =          13   12740.2421875   13417.4033203
 CG ITER, OVMR, OVMRUB =          14   12732.4873047   13417.4033203
 CG ITER, OVMR, OVMRUB =          15   12723.6542969   13379.5009766
 CG ITER, OVMR, OVMRUB =          16   12714.3935547   13248.9785156
 CG ITER, OVMR, OVMRUB =          17   12713.6230469   13202.9541016
 CG ITER, OVMR, OVMRUB =          18   12707.3496094   13194.3613281
 CG ITER, OVMR, OVMRUB =          19   12706.6953125   13194.3613281
 CG ITER, OVMR, OVMRUB =          20   12706.0576172   13194.3613281
 CG ITER, OVMR, OVMRUB =          21   12705.8476562   13194.3613281
 CG ITER, OVMR, OVMRUB =          22   12705.7236328   13194.3613281
 CG ITER, OVMR, OVMRUB =          23   12705.6904297   13194.3613281
 CG ITER, OVMR, OVMRUB =          24   12705.6845703   13194.3613281
 CG ITER, OVMR, OVMRUB =          25   12705.4228516   13183.5703125
 CG ITER, OVMR, OVMRUB =          26   12705.0654297   13183.5703125
 CG ITER, OVMR, OVMRUB =          27   12705.0283203   13183.5703125
 CG ITER, OVMR, OVMRUB =          28   12705.0263672   12839.5615234
 CG ITER, OVMR, OVMRUB =          29   12705.0253906   12791.5615234
 CG ITER, OVMR, OVMRUB =          30   12705.0244141   12791.5605469
 CG ITER, OVMR, OVMRUB =          31   12705.0244141   12791.5605469
OVLB =   12705.0244141 OVLUB =   12791.5605469 TIME =       6.8299999
